Optimal - objective value 5.00000000
      7 x_0_7                       1         -0.333333333333333
     27 x_1_12                      1         -0.258333333333333
     41 x_2_11                      1                       0
     53 x_3_8                       1                       0
     60 x_4_0                       1                       0
     82 x_5_7                       1                  -0.275
     97 x_6_7                       1         -0.266666666666667
    113 x_7_8                       1         0.0166666666666667
    128 x_8_8                       1         -5.55111512312578e-17
    146 x_9_11                      1                   -0.25
    161 x_10_11                     1                       0
    165 x_11_0                      1                     0.1
    180 x_12_0                      1                       0
    207 x_13_12                     1                   -0.25
    222 x_14_12                     1                   -0.25
    225 y_0                         1                       0
    232 y_7                         1                       1
    233 y_8                         1         0.108333333333334
    236 y_11                        1                   0.675
    237 y_12                        1                       1
